p cnf 280 956
c t mc
-3 -2 0
-3 2 0
-4 1 0
-4 -3 0
-1 3 4 0
7 5 0
7 6 0
-5 -6 -7 0
8 4 0
8 -7 0
-4 7 -8 0
11 -9 0
11 -10 0
9 10 -11 0
-6 11 -12 0
6 -11 -12 0
-6 -11 12 0
6 11 12 0
14 -12 0
14 13 0
12 -13 -14 0
-18 16 0
-18 -17 0
-16 17 18 0
-15 18 -19 0
15 -18 -19 0
-15 -18 19 0
15 18 19 0
-20 -14 0
-20 -19 0
14 19 20 0
-22 -21 0
-22 10 0
21 -10 22 0
-23 -7 0
-23 -22 0
7 22 23 0
24 23 0
24 15 0
-23 -15 -24 0
27 25 0
27 26 0
-25 -26 -27 0
28 -16 0
28 -27 0
16 27 -28 0
29 -5 0
29 -21 0
5 21 -29 0
31 15 -32 0
-31 -15 -32 0
31 -15 32 0
-31 15 32 0
33 30 0
33 32 0
-30 -32 -33 0
-34 29 0
-34 -33 0
-29 33 34 0
-35 28 0
-35 34 0
-28 -34 35 0
37 36 0
37 -17 0
-36 17 -37 0
-38 -27 0
-38 37 0
27 -37 38 0
-39 -35 0
-39 -38 0
35 38 39 0
42 -40 0
42 -41 0
40 41 -42 0
-29 34 -43 0
29 -34 -43 0
-29 -34 43 0
29 34 43 0
44 42 0
44 43 0
-42 -43 -44 0
45 -39 0
45 44 0
39 -44 -45 0
24 -45 -46 0
-24 45 -46 0
24 45 46 0
-24 -45 46 0
20 46 -47 0
-20 -46 -47 0
20 -46 47 0
-20 46 47 0
49 48 0
49 -40 0
-48 40 -49 0
-50 47 0
-50 -49 0
-47 49 50 0
8 -50 -51 0
-8 50 -51 0
8 50 51 0
-8 -50 51 0
54 36 0
54 53 0
-36 -53 -54 0
55 52 0
55 54 0
-52 -54 -55 0
56 -4 0
56 26 0
4 -26 -56 0
-58 56 0
-58 57 0
-56 -57 58 0
-59 -55 0
-59 58 0
55 -58 59 0
60 14 -61 0
-60 -14 -61 0
60 -14 61 0
-60 14 61 0
63 -35 0
63 62 0
35 -62 -63 0
64 61 0
64 -63 0
-61 63 -64 0
65 3 0
65 -10 0
-3 10 -65 0
-6 -22 -67 0
6 22 -67 0
-6 22 67 0
6 -22 67 0
66 67 -68 0
-66 -67 -68 0
66 -67 68 0
-66 67 68 0
-69 65 0
-69 68 0
-65 -68 69 0
70 -12 0
70 16 0
12 -16 -70 0
71 14 0
71 70 0
-14 -70 -71 0
72 -71 0
72 62 0
71 -62 -72 0
54 -30 -73 0
-54 30 -73 0
54 30 73 0
-54 -30 73 0
72 -73 -74 0
-72 73 -74 0
72 73 74 0
-72 -73 74 0
-69 -74 -75 0
69 74 -75 0
-69 74 75 0
69 -74 75 0
-57 53 -77 0
57 -53 -77 0
-57 -53 77 0
57 53 77 0
-78 76 0
-78 77 0
-76 -77 78 0
79 -32 0
79 3 0
32 -3 -79 0
80 78 0
80 79 0
-78 -79 -80 0
81 -75 0
81 80 0
75 -80 -81 0
82 64 0
82 -81 0
-64 81 -82 0
-84 30 0
-84 -83 0
-30 83 84 0
-85 84 0
-85 -57 0
-84 57 85 0
48 -85 -86 0
-48 85 -86 0
48 85 86 0
-48 -85 86 0
-54 86 -87 0
54 -86 -87 0
-54 -86 87 0
54 86 87 0
-89 -21 0
-89 -88 0
21 88 89 0
90 14 0
90 -89 0
-14 89 -90 0
91 35 0
91 40 0
-35 -40 -91 0
92 86 0
92 -91 0
-86 91 -92 0
-93 -40 0
-93 -23 0
40 23 93 0
94 13 0
94 93 0
-13 -93 -94 0
-95 -92 0
-95 94 0
92 -94 95 0
96 -90 0
96 95 0
90 -95 -96 0
-87 96 -97 0
87 -96 -97 0
-87 -96 97 0
87 96 97 0
82 -97 -98 0
-82 97 -98 0
82 97 98 0
-82 -97 98 0
-99 59 0
-99 98 0
-59 -98 99 0
100 -57 0
100 -15 0
57 15 -100 0
101 -9 -102 0
-101 9 -102 0
101 9 102 0
-101 -9 102 0
103 102 0
103 -34 0
-102 34 -103 0
-100 103 -104 0
100 -103 -104 0
-100 -103 104 0
100 103 104 0
56 104 -105 0
-56 -104 -105 0
56 -104 105 0
-56 104 105 0
-106 6 -107 0
106 -6 -107 0
-106 -6 107 0
106 6 107 0
-108 -28 0
-108 107 0
28 -107 108 0
109 16 0
109 -52 0
-16 52 -109 0
110 1 0
110 57 0
-1 -57 -110 0
111 -110 0
111 -42 0
110 42 -111 0
112 -109 0
112 111 0
109 -111 -112 0
-113 -112 0
-113 18 0
112 -18 113 0
-114 108 0
-114 -113 0
-108 113 114 0
-105 114 -115 0
105 -114 -115 0
-105 -114 115 0
105 114 115 0
9 22 -116 0
-9 -22 -116 0
9 -22 116 0
-9 22 116 0
111 -116 -117 0
-111 116 -117 0
111 116 117 0
-111 -116 117 0
118 -88 0
118 -3 0
88 3 -118 0
-84 -4 -119 0
84 4 -119 0
-84 4 119 0
84 -4 119 0
120 -62 0
120 119 0
62 -119 -120 0
118 120 -121 0
-118 -120 -121 0
118 -120 121 0
-118 120 121 0
-122 5 0
-122 2 0
-5 -2 122 0
-123 122 0
-123 -30 0
-122 30 123 0
-35 -123 -124 0
35 123 -124 0
-35 123 124 0
35 -123 124 0
-125 100 0
-125 -124 0
-100 124 125 0
-121 -125 -126 0
121 125 -126 0
-121 125 126 0
121 -125 126 0
16 -92 -127 0
-16 92 -127 0
16 92 127 0
-16 -92 127 0
126 -127 -128 0
-126 127 -128 0
126 127 128 0
-126 -127 128 0
117 -128 -129 0
-117 128 -129 0
117 128 129 0
-117 -128 129 0
130 115 0
130 129 0
-115 -129 -130 0
-131 -99 0
-131 130 0
99 -130 131 0
103 -88 -132 0
-103 88 -132 0
103 88 132 0
-103 -88 132 0
133 -63 0
133 -12 0
63 12 -133 0
134 107 0
134 -133 0
-107 133 -134 0
91 -66 -135 0
-91 66 -135 0
91 66 135 0
-91 -66 135 0
-136 -135 0
-136 76 0
135 -76 136 0
137 -76 0
137 -52 0
76 52 -137 0
-138 86 0
-138 -124 0
-86 124 138 0
-137 138 -139 0
137 -138 -139 0
-137 -138 139 0
137 138 139 0
-140 136 0
-140 139 0
-136 -139 140 0
141 -134 0
141 -140 0
134 140 -141 0
143 -142 0
143 33 0
142 -33 -143 0
-143 86 -144 0
143 -86 -144 0
-143 -86 144 0
143 86 144 0
-145 144 0
-145 18 0
-144 -18 145 0
-146 36 0
-146 145 0
-36 -145 146 0
147 146 0
147 -16 0
-146 16 -147 0
-148 -110 0
-148 -147 0
110 147 148 0
141 148 -149 0
-141 -148 -149 0
141 -148 149 0
-141 148 149 0
132 149 -150 0
-132 -149 -150 0
132 -149 150 0
-132 149 150 0
151 -147 0
151 78 0
147 -78 -151 0
152 -150 0
152 151 0
150 -151 -152 0
-131 -152 -153 0
131 152 -153 0
-131 152 153 0
131 -152 153 0
-55 -33 -154 0
55 33 -154 0
-55 33 154 0
55 -33 154 0
-155 19 0
-155 -154 0
-19 154 155 0
106 -29 -157 0
-106 29 -157 0
106 29 157 0
-106 -29 157 0
158 -156 0
158 157 0
156 -157 -158 0
159 -4 0
159 112 0
4 -112 -159 0
160 158 0
160 -159 0
-158 159 -160 0
146 -48 -161 0
-146 48 -161 0
146 48 161 0
-146 -48 161 0
162 -88 0
162 -109 0
88 109 -162 0
163 144 0
163 -109 0
-144 109 -163 0
-164 162 0
-164 163 0
-162 -163 164 0
-165 -161 0
-165 -164 0
161 164 165 0
-166 -160 0
-166 165 0
160 -165 166 0
-167 155 0
-167 -166 0
-155 166 167 0
-168 145 0
-168 91 0
-145 -91 168 0
169 13 0
169 -65 0
-13 65 -169 0
170 109 0
170 169 0
-109 -169 -170 0
-171 -168 0
-171 -170 0
168 170 171 0
-172 167 0
-172 171 0
-167 -171 172 0
-21 18 -173 0
21 -18 -173 0
-21 -18 173 0
21 18 173 0
-122 -57 -174 0
122 57 -174 0
-122 57 174 0
122 -57 174 0
175 173 0
175 174 0
-173 -174 -175 0
-176 54 0
-176 15 0
-54 -15 176 0
142 84 -177 0
-142 -84 -177 0
142 -84 177 0
-142 84 177 0
178 176 0
178 -177 0
-176 177 -178 0
179 16 0
179 103 0
-16 -103 -179 0
-112 -179 -180 0
112 179 -180 0
-112 179 180 0
112 -179 180 0
181 178 0
181 180 0
-178 -180 -181 0
-175 -181 -182 0
175 181 -182 0
-175 181 182 0
175 -181 182 0
-183 172 0
-183 -182 0
-172 182 183 0
22 62 -184 0
-22 -62 -184 0
22 -62 184 0
-22 62 184 0
185 184 0
185 40 0
-184 -40 -185 0
186 135 0
186 -184 0
-135 184 -186 0
187 185 0
187 186 0
-185 -186 -187 0
-188 -183 0
-188 187 0
183 -187 188 0
189 -153 0
189 188 0
153 -188 -189 0
27 -58 -190 0
-27 58 -190 0
27 58 190 0
-27 -58 190 0
-190 39 -191 0
190 -39 -191 0
-190 -39 191 0
190 39 191 0
192 125 0
192 191 0
-125 -191 -192 0
-193 143 0
-193 -100 0
-143 100 193 0
-194 -15 0
-194 -193 0
15 193 194 0
-195 -1 0
-195 140 0
1 -140 195 0
196 194 0
196 195 0
-194 -195 -196 0
197 192 0
197 -196 0
-192 196 -197 0
-198 -189 0
-198 -197 0
189 197 198 0
199 51 0
199 -198 0
-51 198 -199 0
-200 -53 0
-200 -44 0
53 44 200 0
-201 27 0
-201 122 0
-27 -122 201 0
202 201 0
202 26 0
-201 -26 -202 0
203 41 0
203 37 0
-41 -37 -203 0
-204 67 0
-204 -26 0
-67 26 204 0
-205 203 0
-205 -204 0
-203 204 205 0
-206 10 0
-206 201 0
-10 -201 206 0
205 -206 -207 0
-205 206 -207 0
205 206 207 0
-205 -206 207 0
-202 -207 -208 0
202 207 -208 0
-202 207 208 0
202 -207 208 0
-209 -200 0
-209 -208 0
200 208 209 0
-210 -57 0
-210 44 0
57 -44 210 0
-211 -124 0
-211 76 0
124 -76 211 0
-212 210 0
-212 211 0
-210 -211 212 0
-213 -6 0
-213 201 0
6 -201 213 0
-212 -213 -214 0
212 213 -214 0
-212 213 214 0
212 -213 214 0
-91 92 -215 0
91 -92 -215 0
-91 -92 215 0
91 92 215 0
-214 215 -216 0
214 -215 -216 0
-214 -215 216 0
214 215 216 0
-217 -209 0
-217 -216 0
209 216 217 0
218 52 0
218 30 0
-52 -30 -218 0
219 65 0
219 71 0
-65 -71 -219 0
-220 138 0
-220 219 0
-138 -219 220 0
218 220 -221 0
-218 -220 -221 0
218 -220 221 0
-218 220 221 0
-222 177 0
-222 53 0
-177 -53 222 0
-222 66 -223 0
222 -66 -223 0
-222 -66 223 0
222 66 223 0
-224 -223 0
-224 -203 0
223 203 224 0
-225 -61 0
-225 -43 0
61 43 225 0
-226 -224 0
-226 225 0
224 -225 226 0
-227 -71 0
-227 -95 0
71 95 227 0
-228 -101 0
-228 33 0
101 -33 228 0
229 227 0
229 228 0
-227 -228 -229 0
230 226 0
230 -229 0
-226 229 -230 0
231 10 0
231 22 0
-10 -22 -231 0
-232 -204 0
-232 31 0
204 -31 232 0
67 -134 -233 0
-67 134 -233 0
67 134 233 0
-67 -134 233 0
-234 -232 0
-234 -233 0
232 233 234 0
-235 -231 0
-235 -234 0
231 234 235 0
-230 235 -236 0
230 -235 -236 0
-230 -235 236 0
230 235 236 0
237 -31 -238 0
-237 31 -238 0
237 31 238 0
-237 -31 238 0
-239 -30 0
-239 -143 0
30 143 239 0
88 -239 -240 0
-88 239 -240 0
88 239 240 0
-88 -239 240 0
-241 32 0
-241 -9 0
-32 9 241 0
-242 -79 0
-242 -11 0
79 11 242 0
243 -241 0
243 242 0
241 -242 -243 0
244 118 0
244 -243 0
-118 243 -244 0
-240 -244 -245 0
240 244 -245 0
-240 244 245 0
240 -244 245 0
246 -238 0
246 245 0
238 -245 -246 0
247 236 0
247 -246 0
-236 246 -247 0
248 54 0
248 -72 0
-54 72 -248 0
-249 -23 0
-249 -62 0
23 62 249 0
250 248 0
250 -249 0
-248 249 -250 0
-247 -250 -251 0
247 250 -251 0
-247 250 251 0
247 -250 251 0
211 -10 -252 0
-211 10 -252 0
211 10 252 0
-211 -10 252 0
-252 41 -253 0
252 -41 -253 0
-252 -41 253 0
252 41 253 0
-254 -251 0
-254 253 0
251 -253 254 0
255 221 0
255 -254 0
-221 254 -255 0
217 -255 -256 0
-217 255 -256 0
217 255 256 0
-217 -255 256 0
-16 29 -257 0
16 -29 -257 0
-16 -29 257 0
16 29 257 0
-258 -107 0
-258 -31 0
107 31 258 0
-258 -7 -259 0
258 7 -259 0
-258 7 259 0
258 -7 259 0
-257 259 -260 0
257 -259 -260 0
-257 -259 260 0
257 259 260 0
-261 -10 0
-261 -142 0
10 142 261 0
-262 77 0
-262 43 0
-77 -43 262 0
261 -262 -263 0
-261 262 -263 0
261 262 263 0
-261 -262 263 0
264 104 0
264 -248 0
-104 248 -264 0
265 88 0
265 7 0
-88 -7 -265 0
264 -265 -266 0
-264 265 -266 0
264 265 266 0
-264 -265 266 0
267 -13 0
267 27 0
13 -27 -267 0
268 -266 0
268 267 0
266 -267 -268 0
269 -263 0
269 268 0
263 -268 -269 0
-169 -70 -270 0
169 70 -270 0
-169 70 270 0
169 -70 270 0
-270 6 -271 0
270 -6 -271 0
-270 -6 271 0
270 6 271 0
-272 271 0
-272 55 0
-271 -55 272 0
-269 272 -273 0
269 -272 -273 0
-269 -272 273 0
269 272 273 0
1 -9 -274 0
-1 9 -274 0
1 9 274 0
-1 -9 274 0
275 6 0
275 -274 0
-6 274 -275 0
276 54 0
276 275 0
-54 -275 -276 0
-277 273 0
-277 -276 0
-273 276 277 0
278 260 0
278 -277 0
-260 277 -278 0
-279 -256 0
-279 -278 0
256 278 279 0
199 279 -280 0
-199 -279 -280 0
199 -279 280 0
-199 279 280 0
66 -4 161 -41 0
-280 186 -72 -173 0
-216 108 -211 -127 -118 -226 -38 174 0
133 -229 93 88 259 -9 143 -210 157 0
-197 -73 5 -30 -6 -96 92 0
-36 -81 -147 51 116 112 0
-200 -15 -45 -255 -280 3 104 0
164 243 -255 118 -57 -224 -51 -106 -8 0
280 12 77 -69 278 0
247 -166 -10 14 -249 0
183 212 280 195 -78 0
210 9 180 184 0
143 132 -36 -267 0
-80 -76 135 77 -116 66 0
-7 -132 258 219 142 49 263 0
-215 76 -196 145 248 -231 194 77 19 0
-230 -263 174 199 0
-127 -66 -56 172 -131 -159 0
2 -77 130 236 0
24 -77 -136 -134 93 0
-273 266 232 150 134 270 0
-4 -113 -276 176 -247 -237 219 0
116 -129 243 -76 143 149 69 0
211 180 -34 18 253 0
-93 167 126 -262 252 98 169 -186 -228 0
163 137 -101 211 47 134 0
41 45 -249 177 -183 -131 0
-206 -168 -204 275 46 -197 0
126 -5 122 -35 -160 -125 189 -128 0
63 34 -139 -136 134 -236 176 166 -209 0
-55 91 113 119 0
-211 260 38 -123 230 0
-79 -15 95 -26 -109 0
-179 -107 214 -53 -82 55 79 -225 0
-273 71 104 -113 -4 -25 -24 0
239 179 55 45 -56 151 0
-58 27 -236 -12 50 0
52 96 8 -253 0
228 178 -152 25 209 135 0
127 -173 252 10 135 0
97 220 266 130 -44 -217 10 0
77 -230 82 -277 0
171 -209 -100 -89 270 -19 0
129 193 -123 77 0
-268 -102 154 38 -253 1 123 -106 0
67 -128 68 -54 120 187 0
165 -235 -261 -245 -105 174 116 11 -89 0
146 -240 -271 -76 0
68 13 -277 -197 -150 98 -117 0
102 174 -106 -266 226 182 -191 161 -96 0
-26 -28 -42 -270 -84 -228 -118 109 0
229 -93 -112 275 -250 0
-198 264 7 -5 -197 0
-45 -258 130 52 -73 -187 -69 -264 0
-136 -46 75 34 165 0
166 -225 -33 183 -200 0
14 -127 -269 -39 -221 0
75 133 142 -18 180 -249 173 187 0
92 138 260 -53 -209 0
267 58 -56 -224 -82 0
-217 -154 -11 86 0
-257 -223 152 -214 -174 47 255 -62 175 0
249 64 -147 205 115 -66 223 -105 136 0
-213 -154 -144 49 109 103 0
241 -144 -138 190 0
183 -46 -27 -10 -49 -185 145 0
-122 -82 229 -102 0
177 80 -127 42 0
-216 196 3 -22 0
260 217 -57 250 179 267 0
193 161 180 -245 50 35 23 0
206 7 56 -46 -179 51 83 0
-273 -234 178 -268 77 0
42 -38 -114 90 -182 -192 -75 0
102 46 54 -2 247 186 -68 0
-168 26 261 -75 -220 -183 -177 25 270 0
184 139 -144 -51 83 0
-268 -269 109 166 0
139 177 220 -98 112 0
-94 19 222 166 127 77 -24 -259 0
166 -240 -117 260 249 -193 0
-86 93 -32 -181 126 19 154 -120 250 0
6 182 34 -164 -27 -128 131 -219 -259 0
49 -58 75 67 206 14 -70 0
251 91 32 191 131 0
141 130 30 -80 13 0
-154 -106 93 -239 211 -179 186 278 0
-97 205 -5 -191 -230 0
145 238 92 103 131 56 80 0
250 -132 -65 -230 30 6 182 31 24 0
-49 -73 179 26 -170 27 -261 75 -113 0
-184 -210 32 -207 71 90 -11 0
-280 -79 -136 44 -268 -102 118 0
-172 -154 -33 -148 -29 -246 -142 0
154 -210 254 -171 -152 0
-179 -235 67 -167 0
227 256 -17 -97 -272 75 -260 0
-232 -70 264 193 -17 168 89 0
-216 244 -208 -125 -159 164 67 -60 0
-272 31 51 117 45 90 0
266 56 -20 12 -204 -52 -13 -183 -25 0
-250 31 107 -239 -264 236 14 233 -99 0
-20 159 -92 -43 168 0
177 68 -127 -92 202 0
266 -161 -134 -200 -203 -70 -12 21 0
-127 -131 180 114 -263 261 159 -54 209 0
-107 44 -27 -95 -146 -139 -149 0
21 84 -79 253 127 226 -52 -137 0
102 258 -32 -81 -183 -248 -216 -275 0
21 -124 11 -217 -178 272 -204 61 0
-41 -28 -9 2 145 70 74 113 0
138 -185 -223 -203 253 0
-189 -145 -158 123 51 -26 0
103 275 -150 -169 0
-279 123 244 148 0
-189 -183 219 102 0
-265 195 37 262 -6 0
153 112 -195 -139 0
-110 142 -129 -47 0
-17 106 72 35 0
-21 201 265 -1 -146 -180 0
136 194 -237 120 0
-14 231 52 269 -180 -228 -148 224 191 0
-243 68 -249 -45 0
254 -165 -47 -167 0
178 186 93 -136 -234 257 -47 56 0
-52 -230 98 166 19 -40 4 188 179 0
203 -254 207 -139 -212 -172 0
148 -270 -263 35 211 27 -37 222 0
220 -34 59 -215 0
201 -218 91 -199 279 7 -247 -196 -128 0
138 -174 -239 96 0
-147 184 204 41 -69 -215 200 0
-178 134 -151 -1 -184 0
71 -20 -255 -41 51 -100 -66 205 0
111 -204 -93 -123 -224 182 -269 217 0
-208 -65 -221 -167 83 -27 197 0
-59 -244 81 221 205 236 -118 0
-251 -85 -136 22 3 -19 -43 -188 24 0
280 0
